(set-option :produce-models true); benchmark generated from python API
(set-info :status unknown)
(declare-fun l_0_0_7 () Real)
(declare-fun l_0_0_10 () Real)
(declare-fun l_0_0_4 () Real)
(declare-fun l_0_0_1 () Real)
(declare-fun _a_0_ () Real)
(declare-fun _a_1_ () Real)
(declare-fun l_0_0_8 () Real)
(declare-fun l_0_0_2 () Real)
(declare-fun _a_2_ () Real)
(declare-fun l_0_0_9 () Real)
(declare-fun l_0_0_3 () Real)
(declare-fun _a_3_ () Real)
(declare-fun l_0_0_5 () Real)
(declare-fun l_0_0_11 () Real)
(declare-fun _a_4_ () Real)
(declare-fun l_0_0_6 () Real)
(declare-fun l_0_0_12 () Real)
(declare-fun _a_5_ () Real)
(declare-fun l_0_1_7 () Real)
(declare-fun l_0_1_13 () Real)
(declare-fun l_0_1_1 () Real)
(declare-fun l_0_1_8 () Real)
(declare-fun l_0_1_14 () Real)
(declare-fun l_0_1_2 () Real)
(declare-fun l_0_1_18 () Real)
(declare-fun l_0_1_17 () Real)
(declare-fun l_0_1_16 () Real)
(declare-fun l_0_1_12 () Real)
(declare-fun l_0_1_11 () Real)
(declare-fun l_0_1_10 () Real)
(declare-fun l_0_1_6 () Real)
(declare-fun l_0_1_5 () Real)
(declare-fun l_0_1_4 () Real)
(declare-fun l_0_1_15 () Real)
(declare-fun l_0_1_9 () Real)
(declare-fun l_0_1_3 () Real)
(declare-fun l_0_2_7 () Real)
(declare-fun l_0_2_18 () Real)
(declare-fun l_0_2_17 () Real)
(declare-fun l_0_2_16 () Real)
(declare-fun l_0_2_12 () Real)
(declare-fun l_0_2_11 () Real)
(declare-fun l_0_2_10 () Real)
(declare-fun l_0_2_1 () Real)
(declare-fun l_0_2_6 () Real)
(declare-fun l_0_2_5 () Real)
(declare-fun l_0_2_4 () Real)
(declare-fun l_0_2_8 () Real)
(declare-fun l_0_2_14 () Real)
(declare-fun l_0_2_13 () Real)
(declare-fun l_0_2_2 () Real)
(declare-fun l_0_2_15 () Real)
(declare-fun l_0_2_9 () Real)
(declare-fun l_0_2_3 () Real)
(assert
 (let ((?x65 (- (- _a_0_ (* (* 2.0 l_0_0_1) l_0_0_4)) (* (* 2.0 l_0_0_10) l_0_0_7))))
 (= ?x65 0.0)))
(assert
 (let ((?x105 (* l_0_0_7 l_0_0_7)))
 (= (- (- _a_1_ (* (* 1.0 l_0_0_1) l_0_0_1)) ?x105) 0.0)))
(assert
 (let ((?x119 (- (- _a_2_ (* (* 2.0 l_0_0_1) l_0_0_2)) (* (* 2.0 l_0_0_7) l_0_0_8))))
 (= ?x119 0.0)))
(assert
 (let ((?x143 (* l_0_0_9 l_0_0_9)))
 (let ((?x141 (* l_0_0_8 l_0_0_8)))
 (let ((?x108 (* l_0_0_1 l_0_0_1)))
 (let ((?x134 (+ _a_3_ ?x108)))
 (let ((?x140 (- (- ?x134 (* (* 1.0 l_0_0_2) l_0_0_2)) (* (* 1.0 l_0_0_3) l_0_0_3))))
 (= (- (- ?x140 ?x141) ?x143) 0.0)))))))
(assert
 (let ((?x170 (* (* 2.0 l_0_0_3) l_0_0_5)))
 (let ((?x167 (* (* 2.0 l_0_0_2) l_0_0_4)))
 (let ((?x165 (- (- _a_4_ (* (* 2.0 l_0_0_10) l_0_0_8)) (* (* 2.0 l_0_0_11) l_0_0_9))))
 (= (- (- ?x165 ?x167) ?x170) 0.0)))))
(assert
 (let ((?x203 (* l_0_0_12 l_0_0_12)))
 (let ((?x201 (* l_0_0_11 l_0_0_11)))
 (let ((?x202 (- (- (+ _a_5_ (* l_0_0_1 l_0_0_1)) (* l_0_0_10 l_0_0_10)) ?x201)))
 (let ((?x210 (- (- (- ?x202 ?x203) (* (* 1.0 l_0_0_4) l_0_0_4)) (* (* 1.0 l_0_0_5) l_0_0_5))))
 (= (- ?x210 (* (* 1.0 l_0_0_6) l_0_0_6)) 0.0))))))
(assert
 (let ((?x60 (* 2.0 l_0_0_1)))
 (let ((?x115 (* ?x60 l_0_0_2)))
 (= ?x115 0.0))))
(assert
 (let ((?x60 (* 2.0 l_0_0_1)))
 (let ((?x61 (* ?x60 l_0_0_4)))
 (= ?x61 0.0))))
(assert
 (let ((?x232 (* l_0_0_6 l_0_0_6)))
 (let ((?x228 (* l_0_0_5 l_0_0_5)))
 (let ((?x224 (* l_0_0_4 l_0_0_4)))
 (let ((?x150 (* l_0_0_3 l_0_0_3)))
 (let ((?x146 (* l_0_0_2 l_0_0_2)))
 (let ((?x241 (+ ?x146 ?x150)))
 (= (+ (+ (+ ?x241 ?x224) ?x228) ?x232) 0.0))))))))
(assert
 (let ((?x170 (* (* 2.0 l_0_0_3) l_0_0_5)))
 (let ((?x167 (* (* 2.0 l_0_0_2) l_0_0_4)))
 (= (+ ?x167 ?x170) 0.0))))
(assert
 (let ((?x232 (* l_0_0_6 l_0_0_6)))
 (= (+ (+ (* l_0_0_4 l_0_0_4) (* l_0_0_5 l_0_0_5)) ?x232) 0.0)))
(assert
 (let ((?x60 (* 2.0 l_0_0_1)))
 (let ((?x115 (* ?x60 l_0_0_2)))
 (= ?x115 0.0))))
(assert
 (let ((?x60 (* 2.0 l_0_0_1)))
 (let ((?x61 (* ?x60 l_0_0_4)))
 (= ?x61 0.0))))
(assert
 (let ((?x150 (* l_0_0_3 l_0_0_3)))
 (let ((?x146 (* l_0_0_2 l_0_0_2)))
 (let ((?x241 (+ ?x146 ?x150)))
 (= ?x241 0.0)))))
(assert
 (let ((?x170 (* (* 2.0 l_0_0_3) l_0_0_5)))
 (let ((?x167 (* (* 2.0 l_0_0_2) l_0_0_4)))
 (= (+ ?x167 ?x170) 0.0))))
(assert
 (>= l_0_0_1 0.0))
(assert
 (>= l_0_0_3 0.0))
(assert
 (>= l_0_0_6 0.0))
(assert
 (>= l_0_0_7 0.0))
(assert
 (>= l_0_0_9 0.0))
(assert
 (>= l_0_0_12 0.0))
(assert
 (let ((?x272 (+ (- (* (* (- _a_1_) l_0_1_1) l_0_1_1) (* l_0_1_13 l_0_1_13)) (* 3.0 (* l_0_1_7 l_0_1_7)))))
 (= (+ ?x272 1.0) 0.0)))
(assert
 (let ((?x290 (- (* (* (* (- 2.0) _a_1_) l_0_1_1) l_0_1_2) (* (* _a_2_ l_0_1_1) l_0_1_1))))
 (let ((?x297 (+ (- ?x290 (* (* 2.0 l_0_1_13) l_0_1_14)) (* (* 6.0 l_0_1_7) l_0_1_8))))
 (= (+ ?x297 1.0) 0.0))))
(assert
 (let ((?x269 (* l_0_1_7 l_0_1_7)))
 (let ((?x344 (* l_0_1_18 l_0_1_18)))
 (let ((?x342 (* l_0_1_17 l_0_1_17)))
 (let ((?x340 (* l_0_1_16 l_0_1_16)))
 (let ((?x337 (* l_0_1_12 l_0_1_12)))
 (let ((?x338 (* 3.0 ?x337)))
 (let ((?x334 (* l_0_1_11 l_0_1_11)))
 (let ((?x335 (* 3.0 ?x334)))
 (let ((?x331 (* l_0_1_10 l_0_1_10)))
 (let ((?x332 (* 3.0 ?x331)))
 (let ((?x324 (* l_0_1_6 l_0_1_6)))
 (let ((?x325 (+ (+ (* l_0_1_4 l_0_1_4) (* l_0_1_5 l_0_1_5)) ?x324)))
 (let ((?x330 (- (- (* (* (* (- 2.0) _a_0_) l_0_1_1) l_0_1_4) (* _a_1_ ?x325)) (* (* _a_5_ l_0_1_1) l_0_1_1))))
 (let ((?x346 (- (- (- (- (+ (+ (+ ?x330 ?x332) ?x335) ?x338) ?x340) ?x342) ?x344) ?x269)))
 (= (- ?x346 (/ 1.0 5.0)) 0.0))))))))))))))))
(assert
 (let ((?x400 (- (* (* (- _a_0_) l_0_1_1) l_0_1_1) (* (* (* 2.0 _a_1_) l_0_1_1) l_0_1_4))))
 (let ((?x405 (- (+ ?x400 (* (* 6.0 l_0_1_10) l_0_1_7)) (* (* 2.0 l_0_1_13) l_0_1_16))))
 (= ?x405 0.0))))
(assert
 (let ((?x433 (+ (* (* 2.0 l_0_1_2) l_0_1_4) (* (* 2.0 l_0_1_3) l_0_1_5))))
 (let ((?x439 (- (- (* (* (* (- 2.0) _a_0_) l_0_1_1) l_0_1_2) (* _a_1_ ?x433)) (* (* (* 2.0 _a_2_) l_0_1_1) l_0_1_4))))
 (let ((?x444 (+ (- ?x439 (* (* _a_4_ l_0_1_1) l_0_1_1)) (* (* 6.0 l_0_1_10) l_0_1_8))))
 (let ((?x450 (- (+ ?x444 (* (* 6.0 l_0_1_11) l_0_1_9)) (* (* 2.0 l_0_1_14) l_0_1_16))))
 (= (- ?x450 (* (* 2.0 l_0_1_15) l_0_1_17)) 0.0))))))
(assert
 (let ((?x526 (* 2.0 l_0_1_10)))
 (let ((?x527 (* ?x526 l_0_1_7)))
 (let ((?x433 (+ (* (* 2.0 l_0_1_2) l_0_1_4) (* (* 2.0 l_0_1_3) l_0_1_5))))
 (let ((?x517 (- (* (- _a_0_) (+ (* l_0_1_2 l_0_1_2) (* l_0_1_3 l_0_1_3))) (* _a_2_ ?x433))))
 (let ((?x525 (- (- ?x517 (* (* (* 2.0 _a_3_) l_0_1_1) l_0_1_4)) (* (* (* 2.0 _a_4_) l_0_1_1) l_0_1_2))))
 (= (- ?x525 ?x527) 0.0)))))))
(assert
 (let ((?x582 (* (* 2.0 l_0_1_7) l_0_1_8)))
 (let ((?x324 (* l_0_1_6 l_0_1_6)))
 (let ((?x325 (+ (+ (* l_0_1_4 l_0_1_4) (* l_0_1_5 l_0_1_5)) ?x324)))
 (let ((?x433 (+ (* (* 2.0 l_0_1_2) l_0_1_4) (* (* 2.0 l_0_1_3) l_0_1_5))))
 (let ((?x394 (- _a_0_)))
 (let ((?x576 (- (- (* ?x394 ?x433) (* _a_2_ ?x325)) (* (* (* 2.0 _a_4_) l_0_1_1) l_0_1_4))))
 (= (- (- ?x576 (* (* (* 2.0 _a_5_) l_0_1_1) l_0_1_2)) ?x582) 0.0))))))))
(assert
 (let ((?x526 (* 2.0 l_0_1_10)))
 (let ((?x527 (* ?x526 l_0_1_7)))
 (let ((?x324 (* l_0_1_6 l_0_1_6)))
 (let ((?x325 (+ (+ (* l_0_1_4 l_0_1_4) (* l_0_1_5 l_0_1_5)) ?x324)))
 (let ((?x394 (- _a_0_)))
 (let ((?x629 (- (- (* ?x394 ?x325) (* (* (* 2.0 _a_5_) l_0_1_1) l_0_1_4)) ?x527)))
 (= ?x629 0.0))))))))
(assert
 (let ((?x269 (* l_0_1_7 l_0_1_7)))
 (let ((?x657 (* l_0_1_15 l_0_1_15)))
 (let ((?x655 (* l_0_1_14 l_0_1_14)))
 (let ((?x651 (- (* (- _a_1_) (+ (* l_0_1_2 l_0_1_2) (* l_0_1_3 l_0_1_3))) (* (* (* 2.0 _a_2_) l_0_1_1) l_0_1_2))))
 (let ((?x659 (- (- (- (- ?x651 (* (* _a_3_ l_0_1_1) l_0_1_1)) ?x655) ?x657) ?x269)))
 (let ((?x665 (+ (+ ?x659 (* 3.0 (* l_0_1_8 l_0_1_8))) (* 3.0 (* l_0_1_9 l_0_1_9)))))
 (= ?x665 0.0))))))))
(assert
 (let ((?x582 (* (* 2.0 l_0_1_7) l_0_1_8)))
 (let ((?x698 (- (* (- _a_2_) (+ (* l_0_1_2 l_0_1_2) (* l_0_1_3 l_0_1_3))) (* (* (* 2.0 _a_3_) l_0_1_1) l_0_1_2))))
 (= (- ?x698 ?x582) 0.0))))
(assert
 (let ((?x663 (* l_0_1_9 l_0_1_9)))
 (let ((?x660 (* l_0_1_8 l_0_1_8)))
 (let ((?x720 (- (* (- _a_3_) (+ (* l_0_1_2 l_0_1_2) (* l_0_1_3 l_0_1_3))) ?x660)))
 (= (- ?x720 ?x663) 0.0)))))
(assert
 (let ((?x743 (* (* 2.0 l_0_1_11) l_0_1_9)))
 (let ((?x526 (* 2.0 l_0_1_10)))
 (let ((?x740 (* ?x526 l_0_1_8)))
 (let ((?x433 (+ (* (* 2.0 l_0_1_2) l_0_1_4) (* (* 2.0 l_0_1_3) l_0_1_5))))
 (let ((?x718 (- _a_3_)))
 (let ((?x739 (- (* ?x718 ?x433) (* _a_4_ (+ (* l_0_1_2 l_0_1_2) (* l_0_1_3 l_0_1_3))))))
 (= (- (- ?x739 ?x740) ?x743) 0.0))))))))
(assert
 (let ((?x663 (* l_0_1_9 l_0_1_9)))
 (let ((?x660 (* l_0_1_8 l_0_1_8)))
 (let ((?x337 (* l_0_1_12 l_0_1_12)))
 (let ((?x334 (* l_0_1_11 l_0_1_11)))
 (let ((?x331 (* l_0_1_10 l_0_1_10)))
 (let ((?x433 (+ (* (* 2.0 l_0_1_2) l_0_1_4) (* (* 2.0 l_0_1_3) l_0_1_5))))
 (let ((?x324 (* l_0_1_6 l_0_1_6)))
 (let ((?x325 (+ (+ (* l_0_1_4 l_0_1_4) (* l_0_1_5 l_0_1_5)) ?x324)))
 (let ((?x718 (- _a_3_)))
 (let ((?x779 (- (- (* ?x718 ?x325) (* _a_4_ ?x433)) (* _a_5_ (+ (* l_0_1_2 l_0_1_2) (* l_0_1_3 l_0_1_3))))))
 (= (- (- (- (- (- ?x779 ?x331) ?x334) ?x337) ?x660) ?x663) 0.0))))))))))))
(assert
 (let ((?x743 (* (* 2.0 l_0_1_11) l_0_1_9)))
 (let ((?x526 (* 2.0 l_0_1_10)))
 (let ((?x740 (* ?x526 l_0_1_8)))
 (let ((?x433 (+ (* (* 2.0 l_0_1_2) l_0_1_4) (* (* 2.0 l_0_1_3) l_0_1_5))))
 (let ((?x324 (* l_0_1_6 l_0_1_6)))
 (let ((?x325 (+ (+ (* l_0_1_4 l_0_1_4) (* l_0_1_5 l_0_1_5)) ?x324)))
 (let ((?x837 (- _a_4_)))
 (= (- (- (- (* ?x837 ?x325) (* _a_5_ ?x433)) ?x740) ?x743) 0.0)))))))))
(assert
 (let ((?x337 (* l_0_1_12 l_0_1_12)))
 (let ((?x334 (* l_0_1_11 l_0_1_11)))
 (let ((?x331 (* l_0_1_10 l_0_1_10)))
 (let ((?x324 (* l_0_1_6 l_0_1_6)))
 (let ((?x325 (+ (+ (* l_0_1_4 l_0_1_4) (* l_0_1_5 l_0_1_5)) ?x324)))
 (let ((?x875 (- _a_5_)))
 (= (- (- (- (* ?x875 ?x325) ?x331) ?x334) ?x337) 0.0))))))))
(assert
 (>= l_0_1_1 0.0))
(assert
 (>= l_0_1_3 0.0))
(assert
 (>= l_0_1_6 0.0))
(assert
 (>= l_0_1_7 0.0))
(assert
 (>= l_0_1_9 0.0))
(assert
 (>= l_0_1_12 0.0))
(assert
 (>= l_0_1_13 0.0))
(assert
 (>= l_0_1_15 0.0))
(assert
 (>= l_0_1_18 0.0))
(assert
 (let ((?x937 (* l_0_2_7 l_0_2_7)))
 (let ((?x935 (* l_0_2_18 l_0_2_18)))
 (let ((?x933 (* l_0_2_17 l_0_2_17)))
 (let ((?x931 (* l_0_2_16 l_0_2_16)))
 (let ((?x577 (* 2.0 _a_5_)))
 (let ((?x916 (* 1.0 _a_4_)))
 (let ((?x912 (* l_0_2_6 l_0_2_6)))
 (let ((?x913 (+ (+ (* l_0_2_4 l_0_2_4) (* l_0_2_5 l_0_2_5)) ?x912)))
 (let ((?x915 (- (+ (* (* (* (- 2.0) _a_0_) l_0_2_1) l_0_2_4) _a_0_) (* _a_1_ ?x913))))
 (let ((?x924 (- (- (- (+ ?x915 ?x916) (* (* _a_5_ l_0_2_1) l_0_2_1)) ?x577) (* (* 3.0 l_0_2_10) l_0_2_10))))
 (let ((?x930 (- (- ?x924 (* (* 3.0 l_0_2_11) l_0_2_11)) (* (* 3.0 l_0_2_12) l_0_2_12))))
 (= (+ (- (- (- ?x930 ?x931) ?x933) ?x935) ?x937) 0.0)))))))))))))
(assert
 (let ((?x577 (* 2.0 _a_5_)))
 (let ((?x916 (* 1.0 _a_4_)))
 (let ((?x1001 (- (- _a_0_ (* (* (* 2.0 _a_1_) l_0_2_1) l_0_2_2)) (* (* _a_2_ l_0_2_1) l_0_2_1))))
 (let ((?x1009 (- (- (- (+ ?x1001 ?x916) ?x577) (* (* 2.0 l_0_2_13) l_0_2_14)) (* (* 6.0 l_0_2_7) l_0_2_8))))
 (= ?x1009 0.0))))))
(assert
 (let ((?x1048 (* l_0_2_13 l_0_2_13)))
 (let ((?x916 (* 1.0 _a_4_)))
 (let ((?x1040 (+ (- (* (- 1.0) _a_0_) (* (* _a_1_ l_0_2_1) l_0_2_1)) _a_1_)))
 (let ((?x1047 (+ (- (+ (+ ?x1040 (* 1.0 _a_2_)) (* 1.0 _a_3_)) ?x916) (* 1.0 _a_5_))))
 (= (- (- ?x1047 ?x1048) (* (* 3.0 l_0_2_7) l_0_2_7)) 0.0))))))
(assert
 (let ((?x522 (* 2.0 _a_4_)))
 (let ((?x1084 (* 4.0 _a_3_)))
 (let ((?x436 (* 2.0 _a_2_)))
 (let ((?x1076 (+ (* (* 2.0 l_0_2_2) l_0_2_4) (* (* 2.0 l_0_2_3) l_0_2_5))))
 (let ((?x1081 (- (- (* (* (* (- 2.0) _a_0_) l_0_2_1) l_0_2_2) (* _a_1_ ?x1076)) (* (* ?x436 l_0_2_1) l_0_2_4))))
 (let ((?x1089 (- (- (+ (+ ?x1081 ?x436) ?x1084) (* (* _a_4_ l_0_2_1) l_0_2_1)) ?x522)))
 (let ((?x1095 (- (- ?x1089 (* (* 6.0 l_0_2_10) l_0_2_8)) (* (* 6.0 l_0_2_11) l_0_2_9))))
 (let ((?x1101 (- (- ?x1095 (* (* 2.0 l_0_2_14) l_0_2_16)) (* (* 2.0 l_0_2_15) l_0_2_17))))
 (= ?x1101 0.0))))))))))
(assert
 (let ((?x937 (* l_0_2_7 l_0_2_7)))
 (let ((?x1183 (* l_0_2_15 l_0_2_15)))
 (let ((?x1181 (* l_0_2_14 l_0_2_14)))
 (let ((?x916 (* 1.0 _a_4_)))
 (let ((?x518 (* 2.0 _a_3_)))
 (let ((?x1173 (- (* (- _a_1_) (+ (* l_0_2_2 l_0_2_2) (* l_0_2_3 l_0_2_3))) (* (* (* 2.0 _a_2_) l_0_2_1) l_0_2_2))))
 (let ((?x1179 (- (+ (- (+ ?x1173 _a_2_) (* (* _a_3_ l_0_2_1) l_0_2_1)) ?x518) ?x916)))
 (let ((?x1188 (- (+ (- (- (+ ?x1179 _a_5_) ?x1181) ?x1183) ?x937) (* (* 3.0 l_0_2_8) l_0_2_8))))
 (= (- ?x1188 (* (* 3.0 l_0_2_9) l_0_2_9)) 0.0))))))))))
(assert
 (let ((?x1227 (* l_0_2_9 l_0_2_9)))
 (let ((?x1221 (* l_0_2_8 l_0_2_8)))
 (let ((?x979 (* l_0_2_12 l_0_2_12)))
 (let ((?x973 (* l_0_2_11 l_0_2_11)))
 (let ((?x967 (* l_0_2_10 l_0_2_10)))
 (let ((?x1076 (+ (* (* 2.0 l_0_2_2) l_0_2_4) (* (* 2.0 l_0_2_3) l_0_2_5))))
 (let ((?x1084 (* 4.0 _a_3_)))
 (let ((?x912 (* l_0_2_6 l_0_2_6)))
 (let ((?x913 (+ (+ (* l_0_2_4 l_0_2_4) (* l_0_2_5 l_0_2_5)) ?x912)))
 (let ((?x718 (- _a_3_)))
 (let ((?x1240 (- (+ (- (+ (* ?x718 ?x913) ?x1084) (* _a_4_ ?x1076)) _a_4_) (* _a_5_ (+ (* l_0_2_2 l_0_2_2) (* l_0_2_3 l_0_2_3))))))
 (= (+ (+ (+ (+ (+ ?x1240 ?x967) ?x973) ?x979) ?x1221) ?x1227) 0.0)))))))))))))
(assert
 (let ((?x1297 (* (* 2.0 l_0_2_11) l_0_2_9)))
 (let ((?x1293 (* 2.0 l_0_2_10)))
 (let ((?x1294 (* ?x1293 l_0_2_8)))
 (let ((?x1084 (* 4.0 _a_3_)))
 (let ((?x1076 (+ (* (* 2.0 l_0_2_2) l_0_2_4) (* (* 2.0 l_0_2_3) l_0_2_5))))
 (let ((?x718 (- _a_3_)))
 (let ((?x1292 (- (+ (* ?x718 ?x1076) ?x1084) (* _a_4_ (+ (* l_0_2_2 l_0_2_2) (* l_0_2_3 l_0_2_3))))))
 (= (+ (+ ?x1292 ?x1294) ?x1297) 0.0)))))))))
(assert
 (let ((?x1227 (* l_0_2_9 l_0_2_9)))
 (let ((?x1221 (* l_0_2_8 l_0_2_8)))
 (let ((?x1323 (+ (* (- _a_3_) (+ (* l_0_2_2 l_0_2_2) (* l_0_2_3 l_0_2_3))) _a_3_)))
 (= (+ (+ ?x1323 ?x1221) ?x1227) 0.0)))))
(assert
 (let ((?x1297 (* (* 2.0 l_0_2_11) l_0_2_9)))
 (let ((?x1293 (* 2.0 l_0_2_10)))
 (let ((?x1294 (* ?x1293 l_0_2_8)))
 (let ((?x1076 (+ (* (* 2.0 l_0_2_2) l_0_2_4) (* (* 2.0 l_0_2_3) l_0_2_5))))
 (let ((?x522 (* 2.0 _a_4_)))
 (let ((?x912 (* l_0_2_6 l_0_2_6)))
 (let ((?x913 (+ (+ (* l_0_2_4 l_0_2_4) (* l_0_2_5 l_0_2_5)) ?x912)))
 (let ((?x837 (- _a_4_)))
 (= (+ (+ (- (+ (* ?x837 ?x913) ?x522) (* _a_5_ ?x1076)) ?x1294) ?x1297) 0.0))))))))))
(assert
 (let ((?x1293 (* 2.0 l_0_2_10)))
 (let ((?x1378 (* ?x1293 l_0_2_7)))
 (let ((?x522 (* 2.0 _a_4_)))
 (let ((?x1076 (+ (* (* 2.0 l_0_2_2) l_0_2_4) (* (* 2.0 l_0_2_3) l_0_2_5))))
 (let ((?x1370 (- (* (- _a_0_) (+ (* l_0_2_2 l_0_2_2) (* l_0_2_3 l_0_2_3))) (* _a_2_ ?x1076))))
 (let ((?x1376 (- (- ?x1370 (* (* (* 2.0 _a_3_) l_0_2_1) l_0_2_4)) (* (* ?x522 l_0_2_1) l_0_2_2))))
 (= (+ (+ ?x1376 ?x522) ?x1378) 0.0))))))))
(assert
 (let ((?x1424 (* (* 2.0 l_0_2_7) l_0_2_8)))
 (let ((?x1421 (- (* (- _a_2_) (+ (* l_0_2_2 l_0_2_2) (* l_0_2_3 l_0_2_3))) (* (* (* 2.0 _a_3_) l_0_2_1) l_0_2_2))))
 (= (+ (+ ?x1421 _a_4_) ?x1424) 0.0))))
(assert
 (let ((?x979 (* l_0_2_12 l_0_2_12)))
 (let ((?x973 (* l_0_2_11 l_0_2_11)))
 (let ((?x967 (* l_0_2_10 l_0_2_10)))
 (let ((?x912 (* l_0_2_6 l_0_2_6)))
 (let ((?x913 (+ (+ (* l_0_2_4 l_0_2_4) (* l_0_2_5 l_0_2_5)) ?x912)))
 (let ((?x875 (- _a_5_)))
 (= (+ (+ (+ (+ (* ?x875 ?x913) _a_5_) ?x967) ?x973) ?x979) 0.0))))))))
(assert
 (let ((?x1424 (* (* 2.0 l_0_2_7) l_0_2_8)))
 (let ((?x577 (* 2.0 _a_5_)))
 (let ((?x912 (* l_0_2_6 l_0_2_6)))
 (let ((?x913 (+ (+ (* l_0_2_4 l_0_2_4) (* l_0_2_5 l_0_2_5)) ?x912)))
 (let ((?x1076 (+ (* (* 2.0 l_0_2_2) l_0_2_4) (* (* 2.0 l_0_2_3) l_0_2_5))))
 (let ((?x394 (- _a_0_)))
 (let ((?x1461 (- (- (* ?x394 ?x1076) (* _a_2_ ?x913)) (* (* (* 2.0 _a_4_) l_0_2_1) l_0_2_4))))
 (= (+ (+ (- ?x1461 (* (* ?x577 l_0_2_1) l_0_2_2)) ?x577) ?x1424) 0.0)))))))))
(assert
 (let ((?x1506 (- (* (* (- _a_0_) l_0_2_1) l_0_2_1) (* (* (* 2.0 _a_1_) l_0_2_1) l_0_2_4))))
 (let ((?x1510 (- (- ?x1506 (* (* 6.0 l_0_2_10) l_0_2_7)) (* (* 2.0 l_0_2_13) l_0_2_16))))
 (= ?x1510 0.0))))
(assert
 (let ((?x1293 (* 2.0 l_0_2_10)))
 (let ((?x1378 (* ?x1293 l_0_2_7)))
 (let ((?x912 (* l_0_2_6 l_0_2_6)))
 (let ((?x913 (+ (+ (* l_0_2_4 l_0_2_4) (* l_0_2_5 l_0_2_5)) ?x912)))
 (let ((?x394 (- _a_0_)))
 (let ((?x1537 (+ (- (* ?x394 ?x913) (* (* (* 2.0 _a_5_) l_0_2_1) l_0_2_4)) ?x1378)))
 (= ?x1537 0.0))))))))
(assert
 (>= l_0_2_1 0.0))
(assert
 (>= l_0_2_3 0.0))
(assert
 (>= l_0_2_6 0.0))
(assert
 (>= l_0_2_7 0.0))
(assert
 (>= l_0_2_9 0.0))
(assert
 (>= l_0_2_12 0.0))
(assert
 (>= l_0_2_13 0.0))
(assert
 (>= l_0_2_15 0.0))
(assert
 (>= l_0_2_18 0.0))
(check-sat)
(get-model)